(set-info :smt-lib-version 2.6)
(set-logic UF)
(set-info :source |Benchmarks from the paper: "Extending Sledgehammer with SMT Solvers" by Jasmin Blanchette, Sascha Bohme, and Lawrence C. Paulson, CADE 2011.  Translated to SMT2 by Andrew Reynolds and Morgan Deters.|)
(set-info :category "industrial")
(set-info :status unknown)
(declare-sort S1 0)
(declare-sort S2 0)
(declare-sort S3 0)
(declare-sort S4 0)
(declare-sort S5 0)
(declare-sort S6 0)
(declare-sort S7 0)
(declare-sort S8 0)
(declare-sort S9 0)
(declare-sort S10 0)
(declare-sort S11 0)
(declare-sort S12 0)
(declare-sort S13 0)
(declare-sort S14 0)
(declare-sort S15 0)
(declare-sort S16 0)
(declare-sort S17 0)
(declare-sort S18 0)
(declare-sort S19 0)
(declare-sort S20 0)
(declare-sort S21 0)
(declare-sort S22 0)
(declare-sort S23 0)
(declare-sort S24 0)
(declare-sort S25 0)
(declare-fun f1 () S1)
(declare-fun f2 () S1)
(declare-fun f3 (S3 S2) S1)
(declare-fun f4 (S4 S3) S3)
(declare-fun f5 (S2) S4)
(declare-fun f6 (S2 S3) S1)
(declare-fun f7 (S6 S5) S1)
(declare-fun f8 (S7 S6) S6)
(declare-fun f9 (S5) S7)
(declare-fun f10 (S5 S6) S1)
(declare-fun f11 (S2) S4)
(declare-fun f12 (S5) S7)
(declare-fun f13 (S8 S9) S6)
(declare-fun f14 (S2) S8)
(declare-fun f15 () S2)
(declare-fun f16 (S10 S9) S9)
(declare-fun f17 (S11 S9) S10)
(declare-fun f18 () S11)
(declare-fun f19 () S9)
(declare-fun f20 (S12 S13) S10)
(declare-fun f21 () S12)
(declare-fun f22 (S14 S5) S13)
(declare-fun f23 (S15 S2) S14)
(declare-fun f24 () S15)
(declare-fun f25 () S2)
(declare-fun f26 () S5)
(declare-fun f27 () S9)
(declare-fun f28 () S3)
(declare-fun f29 (S5) S7)
(declare-fun f30 (S18 S16) S16)
(declare-fun f31 (S19 S16) S18)
(declare-fun f32 () S19)
(declare-fun f33 (S20 S17) S18)
(declare-fun f34 () S20)
(declare-fun f35 () S16)
(declare-fun f36 (S22 S21) S21)
(declare-fun f37 (S23 S21) S22)
(declare-fun f38 () S23)
(declare-fun f39 (S24 S16) S22)
(declare-fun f40 () S24)
(declare-fun f41 () S21)
(declare-fun f42 () S15)
(declare-fun f43 (S2) S4)
(declare-fun f44 (S25 S2) S15)
(declare-fun f45 () S25)
(declare-fun f46 (S3) S3)
(declare-fun f47 (S6) S6)
(assert (not (= f1 f2)))
(assert (forall ((?v0 S2) (?v1 S3) (?v2 S2)) (= (= (f3 (f4 (f5 ?v0) ?v1) ?v2) f1) (or (= ?v2 ?v0) (= (f6 ?v2 ?v1) f1)))))
(assert (forall ((?v0 S5) (?v1 S6) (?v2 S5)) (= (= (f7 (f8 (f9 ?v0) ?v1) ?v2) f1) (or (= ?v2 ?v0) (= (f10 ?v2 ?v1) f1)))))
(assert (forall ((?v0 S2) (?v1 S3) (?v2 S2)) (= (= (f3 (f4 (f11 ?v0) ?v1) ?v2) f1) (=> (not (= ?v2 ?v0)) (= (f3 ?v1 ?v2) f1)))))
(assert (forall ((?v0 S5) (?v1 S6) (?v2 S5)) (= (= (f7 (f8 (f12 ?v0) ?v1) ?v2) f1) (=> (not (= ?v2 ?v0)) (= (f7 ?v1 ?v2) f1)))))
(assert (let ((?v_0 (f14 f15))) (let ((?v_1 (f13 ?v_0 f19))) (not (= (f13 ?v_0 (f16 (f17 f18 f19) (f16 (f20 f21 (f22 (f23 f24 f25) f26)) f27))) (ite (= (f6 f25 f28) f1) (f8 (f29 f26) ?v_1) ?v_1))))))
(assert (forall ((?v0 S2) (?v1 S5) (?v2 S9)) (let ((?v_0 (f14 f15))) (let ((?v_1 (f13 ?v_0 ?v2))) (= (f13 ?v_0 (f16 (f20 f21 (f22 (f23 f24 ?v0) ?v1)) ?v2)) (ite (= (f6 ?v0 f28) f1) (f8 (f29 ?v1) ?v_1) ?v_1))))))
(assert (= (f6 f15 f28) f1))
(assert (forall ((?v0 S2) (?v1 S5) (?v2 S9)) (let ((?v_0 (f14 ?v0))) (= (f13 ?v_0 (f16 (f20 f21 (f22 (f23 f24 ?v0) ?v1)) ?v2)) (f8 (f29 ?v1) (f13 ?v_0 ?v2))))))
(assert (forall ((?v0 S16) (?v1 S16) (?v2 S17) (?v3 S16)) (let ((?v_0 (f30 (f33 f34 ?v2) ?v3))) (= (= (f30 (f31 f32 ?v0) ?v1) ?v_0) (or (and (= ?v0 f35) (= ?v1 ?v_0)) (exists ((?v4 S16)) (and (= ?v0 (f30 (f33 f34 ?v2) ?v4)) (= (f30 (f31 f32 ?v4) ?v1) ?v3))))))))
(assert (forall ((?v0 S21) (?v1 S21) (?v2 S16) (?v3 S21)) (let ((?v_0 (f36 (f39 f40 ?v2) ?v3))) (= (= (f36 (f37 f38 ?v0) ?v1) ?v_0) (or (and (= ?v0 f41) (= ?v1 ?v_0)) (exists ((?v4 S21)) (and (= ?v0 (f36 (f39 f40 ?v2) ?v4)) (= (f36 (f37 f38 ?v4) ?v1) ?v3))))))))
(assert (forall ((?v0 S9) (?v1 S9) (?v2 S13) (?v3 S9)) (let ((?v_0 (f16 (f20 f21 ?v2) ?v3))) (= (= (f16 (f17 f18 ?v0) ?v1) ?v_0) (or (and (= ?v0 f27) (= ?v1 ?v_0)) (exists ((?v4 S9)) (and (= ?v0 (f16 (f20 f21 ?v2) ?v4)) (= (f16 (f17 f18 ?v4) ?v1) ?v3))))))))
(assert (forall ((?v0 S17) (?v1 S16) (?v2 S16) (?v3 S16)) (let ((?v_0 (f30 (f33 f34 ?v0) ?v1))) (= (= ?v_0 (f30 (f31 f32 ?v2) ?v3)) (or (and (= ?v2 f35) (= ?v_0 ?v3)) (exists ((?v4 S16)) (and (= (f30 (f33 f34 ?v0) ?v4) ?v2) (= ?v1 (f30 (f31 f32 ?v4) ?v3)))))))))
(assert (forall ((?v0 S16) (?v1 S21) (?v2 S21) (?v3 S21)) (let ((?v_0 (f36 (f39 f40 ?v0) ?v1))) (= (= ?v_0 (f36 (f37 f38 ?v2) ?v3)) (or (and (= ?v2 f41) (= ?v_0 ?v3)) (exists ((?v4 S21)) (and (= (f36 (f39 f40 ?v0) ?v4) ?v2) (= ?v1 (f36 (f37 f38 ?v4) ?v3)))))))))
(assert (forall ((?v0 S13) (?v1 S9) (?v2 S9) (?v3 S9)) (let ((?v_0 (f16 (f20 f21 ?v0) ?v1))) (= (= ?v_0 (f16 (f17 f18 ?v2) ?v3)) (or (and (= ?v2 f27) (= ?v_0 ?v3)) (exists ((?v4 S9)) (and (= (f16 (f20 f21 ?v0) ?v4) ?v2) (= ?v1 (f16 (f17 f18 ?v4) ?v3)))))))))
(assert (forall ((?v0 S16) (?v1 S17) (?v2 S16) (?v3 S17)) (= (= (f30 (f31 f32 ?v0) (f30 (f33 f34 ?v1) f35)) (f30 (f31 f32 ?v2) (f30 (f33 f34 ?v3) f35))) (and (= ?v0 ?v2) (= ?v1 ?v3)))))
(assert (forall ((?v0 S21) (?v1 S16) (?v2 S21) (?v3 S16)) (= (= (f36 (f37 f38 ?v0) (f36 (f39 f40 ?v1) f41)) (f36 (f37 f38 ?v2) (f36 (f39 f40 ?v3) f41))) (and (= ?v0 ?v2) (= ?v1 ?v3)))))
(assert (forall ((?v0 S9) (?v1 S13) (?v2 S9) (?v3 S13)) (= (= (f16 (f17 f18 ?v0) (f16 (f20 f21 ?v1) f27)) (f16 (f17 f18 ?v2) (f16 (f20 f21 ?v3) f27))) (and (= ?v0 ?v2) (= ?v1 ?v3)))))
(assert (forall ((?v0 S9) (?v1 S2) (?v2 S5)) (let ((?v_0 (f14 f15))) (= (f13 ?v_0 (f16 (f17 f18 ?v0) (f16 (f20 f21 (f22 (f23 f42 ?v1) ?v2)) f27))) (f13 ?v_0 ?v0)))))
(assert (forall ((?v0 S2) (?v1 S2) (?v2 S3)) (=> (= (f6 ?v0 (f4 (f43 ?v1) ?v2)) f1) (=> (=> (= ?v0 ?v1) false) (=> (=> (= (f6 ?v0 ?v2) f1) false) false)))))
(assert (forall ((?v0 S5) (?v1 S5) (?v2 S6)) (=> (= (f10 ?v0 (f8 (f29 ?v1) ?v2)) f1) (=> (=> (= ?v0 ?v1) false) (=> (=> (= (f10 ?v0 ?v2) f1) false) false)))))
(assert (forall ((?v0 S2) (?v1 S3) (?v2 S2)) (=> (=> (not (= (f6 ?v0 ?v1) f1)) (= ?v0 ?v2)) (= (f6 ?v0 (f4 (f43 ?v2) ?v1)) f1))))
(assert (forall ((?v0 S5) (?v1 S6) (?v2 S5)) (=> (=> (not (= (f10 ?v0 ?v1) f1)) (= ?v0 ?v2)) (= (f10 ?v0 (f8 (f29 ?v2) ?v1)) f1))))
(assert (forall ((?v0 S9) (?v1 S2) (?v2 S2) (?v3 S5)) (let ((?v_0 (f14 f15))) (= (f13 ?v_0 (f16 (f17 f18 ?v0) (f16 (f20 f21 (f22 (f23 (f44 f45 ?v1) ?v2) ?v3)) f27))) (f8 (f29 ?v3) (f13 ?v_0 ?v0))))))
(assert (forall ((?v0 S16)) (= (f30 (f31 f32 f35) ?v0) ?v0)))
(assert (forall ((?v0 S21)) (= (f36 (f37 f38 f41) ?v0) ?v0)))
(assert (forall ((?v0 S9)) (= (f16 (f17 f18 f27) ?v0) ?v0)))
(assert (forall ((?v0 S16) (?v1 S16)) (= (= f35 (f30 (f31 f32 ?v0) ?v1)) (and (= ?v0 f35) (= ?v1 f35)))))
(assert (forall ((?v0 S21) (?v1 S21)) (= (= f41 (f36 (f37 f38 ?v0) ?v1)) (and (= ?v0 f41) (= ?v1 f41)))))
(assert (forall ((?v0 S9) (?v1 S9)) (= (= f27 (f16 (f17 f18 ?v0) ?v1)) (and (= ?v0 f27) (= ?v1 f27)))))
(assert (forall ((?v0 S2) (?v1 S5) (?v2 S2) (?v3 S2) (?v4 S5)) (not (= (f22 (f23 f42 ?v0) ?v1) (f22 (f23 (f44 f45 ?v2) ?v3) ?v4)))))
(assert (forall ((?v0 S2) (?v1 S2) (?v2 S5) (?v3 S2) (?v4 S5)) (not (= (f22 (f23 (f44 f45 ?v0) ?v1) ?v2) (f22 (f23 f42 ?v3) ?v4)))))
(assert (forall ((?v0 S2) (?v1 S5) (?v2 S2) (?v3 S5)) (= (= (f22 (f23 f42 ?v0) ?v1) (f22 (f23 f42 ?v2) ?v3)) (and (= ?v0 ?v2) (= ?v1 ?v3)))))
(assert (forall ((?v0 S2) (?v1 S2) (?v2 S5) (?v3 S2) (?v4 S2) (?v5 S5)) (= (= (f22 (f23 (f44 f45 ?v0) ?v1) ?v2) (f22 (f23 (f44 f45 ?v3) ?v4) ?v5)) (and (= ?v0 ?v3) (and (= ?v1 ?v4) (= ?v2 ?v5))))))
(assert (forall ((?v0 S2) (?v1 S2) (?v2 S5) (?v3 S2) (?v4 S5)) (not (= (f22 (f23 (f44 f45 ?v0) ?v1) ?v2) (f22 (f23 f24 ?v3) ?v4)))))
(assert (forall ((?v0 S2) (?v1 S5) (?v2 S2) (?v3 S2) (?v4 S5)) (not (= (f22 (f23 f24 ?v0) ?v1) (f22 (f23 (f44 f45 ?v2) ?v3) ?v4)))))
(assert (forall ((?v0 S2) (?v1 S5) (?v2 S2) (?v3 S5)) (not (= (f22 (f23 f24 ?v0) ?v1) (f22 (f23 f42 ?v2) ?v3)))))
(assert (forall ((?v0 S2) (?v1 S5) (?v2 S2) (?v3 S5)) (not (= (f22 (f23 f42 ?v0) ?v1) (f22 (f23 f24 ?v2) ?v3)))))
(assert (forall ((?v0 S2) (?v1 S2) (?v2 S5) (?v3 S9)) (let ((?v_0 (f14 ?v0))) (= (f13 ?v_0 (f16 (f20 f21 (f22 (f23 (f44 f45 ?v0) ?v1) ?v2)) ?v3)) (f8 (f29 ?v2) (f13 ?v_0 ?v3))))))
(assert (forall ((?v0 S2) (?v1 S5) (?v2 S9)) (let ((?v_0 (f14 f15))) (= (f13 ?v_0 (f16 (f20 f21 (f22 (f23 f42 ?v0) ?v1)) ?v2)) (f13 ?v_0 ?v2)))))
(assert (forall ((?v0 S2) (?v1 S2) (?v2 S5) (?v3 S9)) (let ((?v_0 (f14 f15))) (= (f13 ?v_0 (f16 (f20 f21 (f22 (f23 (f44 f45 ?v0) ?v1) ?v2)) ?v3)) (f8 (f29 ?v2) (f13 ?v_0 ?v3))))))
(assert (forall ((?v0 S2) (?v1 S3)) (=> (= (f6 ?v0 ?v1) f1) (= (f4 (f43 ?v0) ?v1) ?v1))))
(assert (forall ((?v0 S5) (?v1 S6)) (=> (= (f10 ?v0 ?v1) f1) (= (f8 (f29 ?v0) ?v1) ?v1))))
(assert (forall ((?v0 S2) (?v1 S3) (?v2 S2)) (=> (= (f6 ?v0 ?v1) f1) (= (f6 ?v0 (f4 (f43 ?v2) ?v1)) f1))))
(assert (forall ((?v0 S5) (?v1 S6) (?v2 S5)) (=> (= (f10 ?v0 ?v1) f1) (= (f10 ?v0 (f8 (f29 ?v2) ?v1)) f1))))
(assert (forall ((?v0 S2) (?v1 S3) (?v2 S3)) (let ((?v_0 (f43 ?v0))) (=> (not (= (f6 ?v0 ?v1) f1)) (=> (not (= (f6 ?v0 ?v2) f1)) (= (= (f4 ?v_0 ?v1) (f4 ?v_0 ?v2)) (= ?v1 ?v2)))))))
(assert (forall ((?v0 S5) (?v1 S6) (?v2 S6)) (let ((?v_0 (f29 ?v0))) (=> (not (= (f10 ?v0 ?v1) f1)) (=> (not (= (f10 ?v0 ?v2) f1)) (= (= (f8 ?v_0 ?v1) (f8 ?v_0 ?v2)) (= ?v1 ?v2)))))))
(assert (forall ((?v0 S2) (?v1 S3) (?v2 S2)) (= (= (f3 (f4 (f43 ?v0) ?v1) ?v2) f1) (or (= ?v0 ?v2) (= (f3 ?v1 ?v2) f1)))))
(assert (forall ((?v0 S5) (?v1 S6) (?v2 S5)) (= (= (f7 (f8 (f29 ?v0) ?v1) ?v2) f1) (or (= ?v0 ?v2) (= (f7 ?v1 ?v2) f1)))))
(assert (forall ((?v0 S2) (?v1 S2) (?v2 S3)) (= (= (f6 ?v0 (f4 (f43 ?v1) ?v2)) f1) (or (= ?v0 ?v1) (= (f6 ?v0 ?v2) f1)))))
(assert (forall ((?v0 S5) (?v1 S5) (?v2 S6)) (= (= (f10 ?v0 (f8 (f29 ?v1) ?v2)) f1) (or (= ?v0 ?v1) (= (f10 ?v0 ?v2) f1)))))
(assert (forall ((?v0 S2) (?v1 S2) (?v2 S3)) (let ((?v_1 (f43 ?v0)) (?v_0 (f43 ?v1))) (= (f4 ?v_1 (f4 ?v_0 ?v2)) (f4 ?v_0 (f4 ?v_1 ?v2))))))
(assert (forall ((?v0 S5) (?v1 S5) (?v2 S6)) (let ((?v_1 (f29 ?v0)) (?v_0 (f29 ?v1))) (= (f8 ?v_1 (f8 ?v_0 ?v2)) (f8 ?v_0 (f8 ?v_1 ?v2))))))
(assert (forall ((?v0 S2) (?v1 S3)) (let ((?v_0 (f43 ?v0))) (let ((?v_1 (f4 ?v_0 ?v1))) (= (f4 ?v_0 ?v_1) ?v_1)))))
(assert (forall ((?v0 S5) (?v1 S6)) (let ((?v_0 (f29 ?v0))) (let ((?v_1 (f8 ?v_0 ?v1))) (= (f8 ?v_0 ?v_1) ?v_1)))))
(assert (forall ((?v0 S2) (?v1 S3)) (= (f4 (f43 ?v0) (f46 ?v1)) (f46 (f4 (f11 ?v0) ?v1)))))
(assert (forall ((?v0 S5) (?v1 S6)) (= (f8 (f29 ?v0) (f47 ?v1)) (f47 (f8 (f12 ?v0) ?v1)))))
(assert (forall ((?v0 S2) (?v1 S3)) (= (f4 (f43 ?v0) ?v1) (f46 (f4 (f5 ?v0) ?v1)))))
(assert (forall ((?v0 S5) (?v1 S6)) (= (f8 (f29 ?v0) ?v1) (f47 (f8 (f9 ?v0) ?v1)))))
(check-sat)
(exit)
